%chk=c2h4-m1
#hf sto-3g  freq nosym


0 1
                6           0        0.000000    0.653015    2.386960
                6           0        0.000000   -0.653015    2.386960
                1           0        0.000000    1.229208    1.471158
                1           0        0.000000    1.229208    3.302762
                1           0        0.000000   -1.229208    1.471158
                1           0        0.000000   -1.229208    3.302762

